38368
1 0 1 1 1 1 1 1 1 1 0 1 0 0 0 0 0 0 1 1 1 0 0 0 0 0 0 0 0 0 
18 19 2 18 2 6 2 0 18 0 4 19 20 3 19 18 3 20 18 0 18 2 5 0 20 18 18 19 4 2 19 19 4 2 18 6 20 8 0 2 18 9 6 4 8 19 3 2 19 20 0 2 2 2 8 6 11 9 18 7 4 0 7 8 3 11 5 19 19 11 18 6 19 9 5 5 20 5 8 2 20 0 9 7 4 20 6 5 18 7 11 6 7 11 2 3 11 6 0 11 19 2 11 18 4 0 4 0 18 3 19 4 18 6 11 8 11 7 0 8 9 11 0 19 9 2 2 11 19 0 11 2 11 20 5 9 3 3 11 20 11 0 11 11 11 5 0 2 11 7 0 0 5 0 8 11 2 5 3 3 3 0 20 5 5 11 5 4 3 2 5 20 19 20 4 5 5 20 4 20 5 5 5 19 11 8 11 5 0 5 5 5 6 4 7 6 7 20 20 19 
